Route #1: 63 23 56 41 43 1 73
Route #2: 6 33 2 68
Route #3: 62 42 64 22 28
Route #4: 30 48 47 21 74
Route #5: 61 69 36 71 60 70 20 37
Route #6: 75 4
Route #7: 45 29 5 15 57 27
Route #8: 34 46 67
Route #9: 52 13 54 19 14
Route #10: 8 35 53 11 7
Route #11: 59 66 65 38
Route #12: 72 31 10 58 26
Route #13: 17 40 9 12
Route #14: 39 25 55 18 50 32
Route #15: 51 16 49 24 3 44
Cost 1029
Time 0.235257
